c read Graph
c width = 267
c time = 422 ms
c width = 19
c time = 663 ms
c width = 18
c time = 899 ms
c width = 17
c time = 3565 ms
c width = 17
c time = 4061 ms
s td 231 18 280
b 1 1 2 21
b 2 2 3 21 22
b 3 18 19 39 40
b 4 3 21 22 41
b 5 18 39 40 60
b 6 221 241 242 262
b 7 240 259 260 279
b 8 221 242 262 263
b 9 240 259 278 279
b 10 3 4 5 24
b 11 3 5 23 24 42 61
b 12 5 23 24 42 44 61 63
b 13 5 24 42 44 61 63 82
b 14 5 24 44 61 63 82 101
b 15 5 24 26 44 45 63 82 101
b 16 5 26 44 45 63 65 82 84 101
b 17 5 26 45 63 65 82 84 101 103
b 18 5 26 45 65 82 84 101 103 122
b 19 5 26 45 47 65 66 84 101 103 122
b 20 5 26 47 65 66 84 86 101 103 105 122
b 21 5 26 47 66 84 86 101 103 105 122 124
b 22 84 103 104 105 124
b 23 5 26 47 66 86 101 103 105 122 124 143
b 24 103 122 123 124 143
b 25 5 26 47 66 68 86 87 101 105 122 124 143
b 26 47 66 67 68 87
b 27 5 26 47 68 86 87 101 105 108 122 124 127 143 145 146
b 28 86 87 105 108 124 126 127 145 146
b 29 86 87 105 107 108 126 127
b 30 86 105 106 107 126
b 31 105 124 125 126 145
b 32 5 26 47 68 87 89 101 108 122 124 127 143 145 146
b 33 68 87 88 89 108
b 34 5 9 26 30 47 51 68 70 89 101 108 122 124 127 143 145 146
b 35 5 9 26 30 47 49 51 68 70 89
b 36 5 9 26 28 30 47 49 68
b 37 5 7 9 26 28 47
b 38 7 8 9 28
b 39 7 26 27 28 47
b 40 5 6 7 26
b 41 9 28 29 30 49
b 42 28 47 48 49 68
b 43 49 68 69 70 89
b 44 30 49 50 51 70
b 45 9 30 51 70 89 101 108 122 124 127 143 145 146 164
b 46 124 143 144 145 164
b 47 9 30 51 70 89 101 108 122 127 143 145 146 164 184 205 226 247 266
b 48 9 30 51 70 89 108 127 145 146 164 167 184 188 205 207 226 247 266
b 49 9 30 51 70 89 108 127 129 146 150 167 169 188 205 207 226 247 266
b 50 9 30 51 70 89 108 129 150 169 188 207 209 226 230 247 251 266 270
b 51 9 30 51 70 89 108 129 150 169 171 188 192 209 211 230 251 266 270
b 52 9 30 51 70 89 108 129 150 171 192 211 213 230 234 251 255 270 274
b 53 9 30 51 70 89 108 110 129 150 171 192 213 234 255 274
b 54 9 30 51 70 89 110 129 131 150 171 192 213 234 255 274
b 55 9 30 51 70 72 89 93 110 112 131 150 171 192 213 234 255 274
b 56 51 70 72 89 91 93 110 112 131
b 57 70 89 90 91 110
b 58 51 70 71 72 91
b 59 72 91 92 93 112
b 60 91 110 111 112 131
b 61 9 30 51 72 93 112 114 131 135 150 154 171 173 192 213 234 255 274
b 62 93 112 114 131 135 150 152 154 171 173 192
b 63 152 171 172 173 192
b 64 131 150 151 152 171
b 65 93 112 114 131 133 135 152 154 173
b 66 133 152 153 154 173
b 67 93 112 113 114 133
b 68 112 131 132 133 152
b 69 114 133 134 135 154
b 70 110 129 130 131 150
b 71 89 108 109 110 129
b 72 192 211 213 230 232 234 251 255 270 274
b 73 213 232 234 251 253 255 270 274
b 74 213 232 233 234 253
b 75 234 253 254 255 274
b 76 232 251 253 270 272 274
b 77 251 270 271 272
b 78 232 251 252 253 272
b 79 253 272 273 274
b 80 192 211 212 213 232
b 81 211 230 231 232 251
b 82 150 169 171 188 190 192 209 211 230
b 83 190 209 210 211 230
b 84 150 169 170 171 190
b 85 171 190 191 192 211
b 86 169 188 189 190 209
b 87 188 207 209 226 228 230 247 251 266 270
b 88 207 226 227 228 247
b 89 188 207 208 209 228
b 90 209 228 230 247 249 251 266 270
b 91 230 249 250 251 270
b 92 228 247 249 266 268 270
b 93 228 247 248 249 268
b 94 247 266 267 268
b 95 249 268 269 270
b 96 209 228 229 230 249
b 97 108 127 129 146 148 150 167 169 188
b 98 127 146 147 148 167
b 99 108 127 128 129 148
b 100 148 167 168 169 188
b 101 129 148 149 150 169
b 102 145 146 164 167 184 186 188 205 207 226
b 103 167 186 187 188 207
b 104 186 205 206 207 226
b 105 145 146 164 165 167 184 186 205
b 106 146 165 166 167 186
b 107 165 184 185 186 205
b 108 101 122 143 162 164 181 184 205 226 247 266
b 109 101 122 141 143 162 181
b 110 101 121 122 141
b 111 141 161 162 181
b 112 122 141 142 143 162
b 113 143 162 164 181 183 184 205 226 247 266
b 114 162 181 183 184 205 226 245 247 266
b 115 226 245 246 247 266
b 116 162 181 183 184 205 224 226 245 266
b 117 162 181 183 184 203 205 224 245 266
b 118 184 203 204 205 224
b 119 162 181 183 202 203 224 245 266
b 120 162 181 182 183 202
b 121 181 202 203 224 245 264 266
b 122 245 264 265 266
b 123 181 202 203 224 243 245 264
b 124 224 243 244 245 264
b 125 181 202 203 222 224 243 264
b 126 203 222 223 224 243
b 127 181 202 221 222 243 264
b 128 181 201 202 221
b 129 221 222 243 263 264
b 130 221 222 242 243 263
b 131 205 224 225 226 245
b 132 143 162 163 164 183
b 133 65 84 85 86 105
b 134 26 45 46 47 66
b 135 82 101 102 103 122
b 136 63 82 83 84 103
b 137 44 63 64 65 84
b 138 5 24 25 26 45
b 139 61 81 82 101
b 140 42 61 62 63 82
b 141 23 42 43 44 63
b 142 3 23 41 42 61
b 143 3 22 23 41 42
b 144 215 234 235 236 255
b 145 194 213 214 215 234
b 146 158 177 179 196 200 215 234 236 255 274
b 147 9 30 51 72 93 114 135 154 173 192 194 213 234 255 274
b 148 9 30 51 72 93 114 135 154 173 194 213 215 234 255 274
b 149 9 30 51 72 93 114 135 154 156 173 177 194 196 215 234 255 274
b 150 9 30 51 72 93 114 135 156 158 177 179 196 200 215 234 255 274
b 151 9 30 51 72 93 114 135 156 177 196 200 215 234 255 274
b 152 9 13 30 34 51 55 72 74 93 114 135 156 158 177 179 200
b 153 9 13 30 34 51 53 55 72 74 93
b 154 9 13 30 32 34 51 53 72
b 155 13 32 33 34 53
b 156 32 51 52 53 72
b 157 9 11 13 30 32 51
b 158 9 10 11 30
b 159 11 30 31 32 51
b 160 11 12 13 32
b 161 34 53 54 55 74
b 162 53 72 73 74 93
b 163 13 34 55 74 93 114 135 137 156 158 177 179 200
b 164 13 34 55 74 76 93 97 114 118 135 137 156 158 179 200
b 165 55 74 76 93 97 114 116 118 135 137 156
b 166 97 116 117 118 137
b 167 55 74 76 93 95 97 114 116 135
b 168 95 114 115 116 135
b 169 74 93 94 95 114
b 170 55 74 75 76 95
b 171 76 95 96 97 116
b 172 116 135 136 137 156
b 173 13 34 55 76 97 99 118 120 137 158 179 200
b 174 13 17 34 36 55 76 97 99 118 120
b 175 17 36 55 76 78 97 99 118 120
b 176 78 97 98 99 118
b 177 17 36 55 57 76 78 97 99 120
b 178 57 76 77 78 97
b 179 36 55 56 57 76
b 180 17 36 57 78 80 99 120
b 181 80 99 100 120
b 182 17 36 57 59 78 80 99
b 183 17 36 38 57 59 78 80
b 184 17 36 37 38 57
b 185 38 57 58 59 78
b 186 17 38 59 60 80
b 187 17 18 38 59 60
b 188 18 38 39 59 60
b 189 59 78 79 80 99
b 190 13 15 17 34 36 55
b 191 15 34 35 36 55
b 192 13 14 15 34
b 193 15 16 17 36
b 194 99 118 120 137 139 158 179 200
b 195 118 137 138 139 158
b 196 99 118 119 120 139
b 197 120 139 158 160 179 200
b 198 139 158 159 160 179
b 199 160 179 180 200
b 200 120 139 140 160
b 201 137 156 157 158 177
b 202 173 192 193 194 213
b 203 135 154 156 173 175 177 194 196 215
b 204 156 175 176 177 196
b 205 154 173 174 175 194
b 206 135 154 155 156 175
b 207 175 194 195 196 215
b 208 158 177 179 196 200 215 217 236 255 274
b 209 158 177 179 196 198 200 217 236 255 274
b 210 179 198 200 217 236 255 274 276
b 211 255 274 275 276
b 212 179 198 200 217 236 255 257 276
b 213 236 255 256 257 276
b 214 179 198 200 217 219 236 257 276
b 215 179 198 199 200 219
b 216 198 200 217 219 236 238 257 276
b 217 217 236 237 238 257
b 218 198 217 218 219 238
b 219 200 219 238 257 276 278
b 220 257 276 277 278
b 221 200 219 238 240 257 278
b 222 219 238 240 257 258 278
b 223 219 238 239 240 258 278
b 224 239 240 258 259 278
b 225 200 219 220 240
b 226 158 177 178 179 198
b 227 177 196 197 198 217
b 228 196 215 216 217 236
b 229 260 279 280
b 230 241 261 262
b 231 19 20 40
1 2
2 4
3 231
3 5
4 143
5 188
6 230
6 8
7 229
7 9
8 130
9 224
10 11
11 142
11 12
12 141
12 13
13 140
13 14
14 139
14 15
15 138
15 16
16 137
16 17
17 136
17 18
18 135
18 19
19 134
19 20
20 133
20 21
21 23
21 22
23 25
23 24
25 27
25 26
27 32
27 28
28 31
28 29
29 30
32 34
32 33
34 45
34 35
35 43
35 44
35 36
36 37
36 41
36 42
37 39
37 40
37 38
45 47
45 46
47 108
47 48
48 102
48 49
49 97
49 50
50 87
50 51
51 82
51 52
52 53
52 72
53 54
53 71
54 70
54 55
55 61
55 56
56 58
56 57
56 59
56 60
61 147
61 62
62 64
62 63
62 65
65 67
65 68
65 69
65 66
72 81
72 73
72 80
73 76
73 75
73 74
76 77
76 78
76 79
82 86
82 84
82 85
82 83
87 90
87 89
87 88
90 96
90 91
90 92
92 95
92 94
92 93
97 99
97 100
97 101
97 98
102 104
102 105
102 103
105 107
105 106
108 109
108 113
109 110
109 111
109 112
113 132
113 114
114 115
114 116
116 131
116 117
117 118
117 119
119 120
119 121
121 122
121 123
123 124
123 125
125 126
125 127
127 128
127 129
129 130
142 143
144 146
145 148
146 208
146 150
147 202
147 148
148 149
149 203
149 151
150 152
150 151
152 163
152 153
153 161
153 162
153 154
154 155
154 156
154 157
157 158
157 160
157 159
163 201
163 164
164 165
164 173
165 166
165 172
165 167
167 170
167 169
167 171
167 168
173 194
173 174
174 190
174 175
175 176
175 177
177 179
177 178
177 180
180 181
180 182
182 189
182 183
183 186
183 184
183 185
186 187
187 188
190 192
190 193
190 191
194 196
194 195
194 197
197 200
197 199
197 198
203 206
203 205
203 204
203 207
208 228
208 209
209 226
209 227
209 210
210 211
210 212
212 213
212 214
214 215
214 216
216 218
216 217
216 219
219 220
219 221
221 225
221 222
222 223
223 224
